Version identifier: 22.1.1.0 | 2022-11-28 | 9160aff4d
CPXPARAM_ClockType                               1
CPXPARAM_Read_DataCheck                          1
CPXPARAM_Threads                                 1
CPXPARAM_TimeLimit                               7200
CPXPARAM_MIP_Tolerances_AbsMIPGap                0
CPXPARAM_MIP_Tolerances_MIPGap                   0
CPXPARAM_MIP_Tolerances_Integrality              0
Tried aggregator 2 times.
MIP Presolve eliminated 122742 rows and 4 columns.
MIP Presolve modified 44568 coefficients.
Aggregator did 630 substitutions.
Reduced MIP has 54774 rows, 8186 columns, and 363796 nonzeros.
Reduced MIP has 8186 binaries, 0 generals, 0 SOSs, and 0 indicators.
Presolve time = 2.65 sec. (1561.47 ticks)
Probing time = 0.02 sec. (5.87 ticks)
Tried aggregator 1 time.
Detecting symmetries...
MIP Presolve eliminated 65 rows and 0 columns.
Reduced MIP has 54709 rows, 8186 columns, and 362431 nonzeros.
Reduced MIP has 8186 binaries, 0 generals, 0 SOSs, and 0 indicators.
Presolve time = 0.96 sec. (586.05 ticks)
Probing time = 0.01 sec. (5.84 ticks)
Clique table members: 48983.
MIP emphasis: balance optimality and feasibility.
MIP search method: dynamic search.
Parallel mode: none, using 1 thread.
Root relaxation solution time = 574.72 sec. (346557.79 ticks)

        Nodes                                         Cuts/
   Node  Left     Objective  IInf  Best Integer    Best Bound    ItCnt     Gap

      0     0      940.9845  2296                    940.9845   414389         
      0     0      622.8000  1848                  Cuts: 1249   697991         
      0     0      609.2857  2361                   Cuts: 717  1037711         

GUB cover cuts applied:  1
Clique cuts applied:  624
Zero-half cuts applied:  372

Root node processing (before b&c):
  Real time             = 7200.11 sec. (2584350.32 ticks)
Sequential b&c:
  Real time             =    0.00 sec. (0.00 ticks)
                          ------------
Total (root+branch&cut) = 7200.11 sec. (2584350.32 ticks)
Solution is infeasible.

---------------------
@@@ MIP_time_limit_infeasible
Traceback (most recent call last):
  File "/scratch/scherif/DiverseSAT-journal_sup/DiverseSAT_Supplementary_Experiments/experiment-1/cplex/jobs/../solvers/CPLEX-IW-SE.py", line 105, in <module>
    print(f">>> Benchmark {os.path.basename(cnf_file)} k {k} OPT {int(prob.solution.get_objective_value())}"
  File "/users/scherif/.local/lib/python3.9/site-packages/cplex/_internal/_subinterfaces.py", line 7211, in get_objective_value
    return CPX_PROC.getobjval(self._env._e, self._cplex._lp)
  File "/users/scherif/.local/lib/python3.9/site-packages/cplex/_internal/_procedural.py", line 2055, in getobjval
    check_status(env, status)
  File "/users/scherif/.local/lib/python3.9/site-packages/cplex/_internal/_procedural.py", line 249, in __call__
    raise CplexSolverError(error_string, env, status)
cplex.exceptions.errors.CplexSolverError: CPLEX Error  1217: No solution exists.
